TYPE : Vertex Cover
DIMENSION: 26
EDGE_DATA_SECTION:
0 2
0 5
0 23
1 4
1 6
1 14
1 15
1 21
1 25
2 5
2 7
2 10
2 14
2 16
3 5
3 25
4 5
4 7
4 9
4 10
4 11
4 14
4 23
4 24
6 17
7 12
7 19
7 20
7 21
9 11
9 13
9 14
9 19
9 21
9 24
10 12
12 19
13 21
15 16
15 23
16 17
16 20
16 23
16 24
16 25
20 24
-1
VERTEX_DEGREE:
3.0 6.0 6.0 2.0 9.0 4.0 2.0 6.0 0.0 7.0 3.0 2.0 3.0 2.0 4.0 3.0 7.0 2.0 0.0 3.0 3.0 4.0 0.0 4.0 4.0 3.0
VERTEX_COVER:
1 2 3 4 5 6 7 9 12 16 20 21 23
EOF
